c A SAT instance generated from a 3-CNF formula that had 28 clauses and 7 variables
p cnf 7 28
-7 5 -1 0
7 -3 1 0
6 4 -7 0
-1 -6 -7 0
7 1 6 0
-2 4 6 0
-7 5 1 0
-1 -7 -3 0
2 -6 -1 0
-2 4 -1 0
6 -4 -2 0
1 3 2 0
7 4 5 0
-4 -3 1 0
-4 -6 -7 0
-6 4 7 0
1 2 -4 0
-3 7 -2 0
-3 -2 5 0
6 7 1 0
-3 -4 5 0
-4 -2 6 0
3 -6 1 0
4 3 2 0
-7 -2 -1 0
5 -6 3 0
2 1 7 0
-6 3 -4 0
